p cnf 685 1906
1 0
-38 -20 0
-38 -20 0
38 20 20 0
-39 -10 0
-39 38 0
39 10 -38 0
-40 -9 0
-40 -9 0
40 9 9 0
-41 -7 0
-41 40 0
41 7 -40 0
-42 -14 0
-42 -14 0
42 14 14 0
-43 -12 0
-43 42 0
43 12 -42 0
-44 -18 0
-44 -18 0
44 18 18 0
-45 -16 0
-45 44 0
45 16 -44 0
-46 -23 0
-46 -23 0
46 23 23 0
-47 -21 0
-47 46 0
47 21 -46 0
-48 -27 0
-48 -27 0
48 27 27 0
-49 -25 0
-49 48 0
49 25 -48 0
-50 -4 0
-50 -4 0
50 4 4 0
-51 -31 0
-51 -31 0
51 31 31 0
-52 -36 0
-52 -36 0
52 36 36 0
-53 -51 0
-53 -52 0
53 51 52 0
-54 -50 0
-54 53 0
54 50 -53 0
-55 -49 0
-55 54 0
55 49 -54 0
-56 -47 0
-56 55 0
56 47 -55 0
-57 -45 0
-57 56 0
57 45 -56 0
-58 -43 0
-58 57 0
58 43 -57 0
-59 -41 0
-59 58 0
59 41 -58 0
-60 -39 0
-60 59 0
60 39 -59 0
-61 29 0
-61 -52 0
61 -29 52 0
-62 -50 0
-62 61 0
62 50 -61 0
-63 -49 0
-63 62 0
63 49 -62 0
-64 -47 0
-64 63 0
64 47 -63 0
-65 -45 0
-65 64 0
65 45 -64 0
-66 -43 0
-66 65 0
66 43 -65 0
-67 -41 0
-67 66 0
67 41 -66 0
-68 -39 0
-68 67 0
68 39 -67 0
-69 33 0
-69 -51 0
69 -33 51 0
-70 -50 0
-70 69 0
70 50 -69 0
-71 -49 0
-71 70 0
71 49 -70 0
-72 -47 0
-72 71 0
72 47 -71 0
-73 -45 0
-73 72 0
73 45 -72 0
-74 -43 0
-74 73 0
74 43 -73 0
-75 -41 0
-75 74 0
75 41 -74 0
-76 -39 0
-76 75 0
76 39 -75 0
-77 29 0
-77 33 0
77 -29 -33 0
-78 -50 0
-78 77 0
78 50 -77 0
-79 -49 0
-79 78 0
79 49 -78 0
-80 -47 0
-80 79 0
80 47 -79 0
-81 -45 0
-81 80 0
81 45 -80 0
-82 -43 0
-82 81 0
82 43 -81 0
-83 -41 0
-83 82 0
83 41 -82 0
-84 -39 0
-84 83 0
84 39 -83 0
-85 -51 0
-85 -52 0
85 51 52 0
-86 2 0
-86 85 0
86 -2 -85 0
-87 -49 0
-87 86 0
87 49 -86 0
-88 -47 0
-88 87 0
88 47 -87 0
-89 -45 0
-89 88 0
89 45 -88 0
-90 -43 0
-90 89 0
90 43 -89 0
-91 -41 0
-91 90 0
91 41 -90 0
-92 -39 0
-92 91 0
92 39 -91 0
-93 29 0
-93 -52 0
93 -29 52 0
-94 2 0
-94 93 0
94 -2 -93 0
-95 -49 0
-95 94 0
95 49 -94 0
-96 -47 0
-96 95 0
96 47 -95 0
-97 -45 0
-97 96 0
97 45 -96 0
-98 -43 0
-98 97 0
98 43 -97 0
-99 -41 0
-99 98 0
99 41 -98 0
-100 -39 0
-100 99 0
100 39 -99 0
-101 29 0
-101 33 0
101 -29 -33 0
-102 2 0
-102 101 0
102 -2 -101 0
-103 -49 0
-103 102 0
103 49 -102 0
-104 -47 0
-104 103 0
104 47 -103 0
-105 -45 0
-105 104 0
105 45 -104 0
-106 -43 0
-106 105 0
106 43 -105 0
-107 -41 0
-107 106 0
107 41 -106 0
-108 -39 0
-108 107 0
108 39 -107 0
-109 33 0
-109 -51 0
109 -33 51 0
-110 2 0
-110 109 0
110 -2 -109 0
-111 -49 0
-111 110 0
111 49 -110 0
-112 -47 0
-112 111 0
112 47 -111 0
-113 -45 0
-113 112 0
113 45 -112 0
-114 -43 0
-114 113 0
114 43 -113 0
-115 -41 0
-115 114 0
115 41 -114 0
-116 -39 0
-116 115 0
116 39 -115 0
-117 -108 0
-117 -116 0
117 108 116 0
-118 -100 0
-118 117 0
118 100 -117 0
-119 -92 0
-119 118 0
119 92 -118 0
-120 -84 0
-120 119 0
120 84 -119 0
-121 -76 0
-121 120 0
121 76 -120 0
-122 -68 0
-122 121 0
122 68 -121 0
-123 -60 0
-123 122 0
123 60 -122 0
-124 123 0
-124 123 0
124 -123 -123 0
-125 -20 0
-125 -20 0
125 20 20 0
-126 -10 0
-126 125 0
126 10 -125 0
-127 -9 0
-127 -9 0
127 9 9 0
-128 -7 0
-128 127 0
128 7 -127 0
-129 -14 0
-129 -14 0
129 14 14 0
-130 -12 0
-130 129 0
130 12 -129 0
-131 -18 0
-131 -18 0
131 18 18 0
-132 -16 0
-132 131 0
132 16 -131 0
-133 -23 0
-133 -23 0
133 23 23 0
-134 -21 0
-134 133 0
134 21 -133 0
-135 -27 0
-135 -27 0
135 27 27 0
-136 -25 0
-136 135 0
136 25 -135 0
-137 -4 0
-137 -4 0
137 4 4 0
-138 -31 0
-138 -31 0
138 31 31 0
-139 -36 0
-139 -36 0
139 36 36 0
-140 -138 0
-140 -139 0
140 138 139 0
-141 -137 0
-141 140 0
141 137 -140 0
-142 -136 0
-142 141 0
142 136 -141 0
-143 -134 0
-143 142 0
143 134 -142 0
-144 -132 0
-144 143 0
144 132 -143 0
-145 -130 0
-145 144 0
145 130 -144 0
-146 -128 0
-146 145 0
146 128 -145 0
-147 -126 0
-147 146 0
147 126 -146 0
-148 29 0
-148 -139 0
148 -29 139 0
-149 -137 0
-149 148 0
149 137 -148 0
-150 -136 0
-150 149 0
150 136 -149 0
-151 -134 0
-151 150 0
151 134 -150 0
-152 -132 0
-152 151 0
152 132 -151 0
-153 -130 0
-153 152 0
153 130 -152 0
-154 -128 0
-154 153 0
154 128 -153 0
-155 -126 0
-155 154 0
155 126 -154 0
-156 33 0
-156 -138 0
156 -33 138 0
-157 -137 0
-157 156 0
157 137 -156 0
-158 -136 0
-158 157 0
158 136 -157 0
-159 -134 0
-159 158 0
159 134 -158 0
-160 -132 0
-160 159 0
160 132 -159 0
-161 -130 0
-161 160 0
161 130 -160 0
-162 -128 0
-162 161 0
162 128 -161 0
-163 -126 0
-163 162 0
163 126 -162 0
-164 29 0
-164 33 0
164 -29 -33 0
-165 -137 0
-165 164 0
165 137 -164 0
-166 -136 0
-166 165 0
166 136 -165 0
-167 -134 0
-167 166 0
167 134 -166 0
-168 -132 0
-168 167 0
168 132 -167 0
-169 -130 0
-169 168 0
169 130 -168 0
-170 -128 0
-170 169 0
170 128 -169 0
-171 -126 0
-171 170 0
171 126 -170 0
-172 -138 0
-172 -139 0
172 138 139 0
-173 2 0
-173 172 0
173 -2 -172 0
-174 -136 0
-174 173 0
174 136 -173 0
-175 -134 0
-175 174 0
175 134 -174 0
-176 -132 0
-176 175 0
176 132 -175 0
-177 -130 0
-177 176 0
177 130 -176 0
-178 -128 0
-178 177 0
178 128 -177 0
-179 -126 0
-179 178 0
179 126 -178 0
-180 29 0
-180 -139 0
180 -29 139 0
-181 2 0
-181 180 0
181 -2 -180 0
-182 -136 0
-182 181 0
182 136 -181 0
-183 -134 0
-183 182 0
183 134 -182 0
-184 -132 0
-184 183 0
184 132 -183 0
-185 -130 0
-185 184 0
185 130 -184 0
-186 -128 0
-186 185 0
186 128 -185 0
-187 -126 0
-187 186 0
187 126 -186 0
-188 29 0
-188 33 0
188 -29 -33 0
-189 2 0
-189 188 0
189 -2 -188 0
-190 -136 0
-190 189 0
190 136 -189 0
-191 -134 0
-191 190 0
191 134 -190 0
-192 -132 0
-192 191 0
192 132 -191 0
-193 -130 0
-193 192 0
193 130 -192 0
-194 -128 0
-194 193 0
194 128 -193 0
-195 -126 0
-195 194 0
195 126 -194 0
-196 33 0
-196 -138 0
196 -33 138 0
-197 2 0
-197 196 0
197 -2 -196 0
-198 -136 0
-198 197 0
198 136 -197 0
-199 -134 0
-199 198 0
199 134 -198 0
-200 -132 0
-200 199 0
200 132 -199 0
-201 -130 0
-201 200 0
201 130 -200 0
-202 -128 0
-202 201 0
202 128 -201 0
-203 -126 0
-203 202 0
203 126 -202 0
-204 -195 0
-204 -203 0
204 195 203 0
-205 -187 0
-205 204 0
205 187 -204 0
-206 -179 0
-206 205 0
206 179 -205 0
-207 -171 0
-207 206 0
207 171 -206 0
-208 -163 0
-208 207 0
208 163 -207 0
-209 -155 0
-209 208 0
209 155 -208 0
-210 -147 0
-210 209 0
210 147 -209 0
-211 210 0
-211 210 0
211 -210 -210 0
-212 124 0
-212 -211 0
-213 -124 0
-213 211 0
214 212 213 0
-215 123 0
-215 123 0
215 -123 -123 0
-216 2 0
-216 -215 0
216 -2 215 0
-217 50 0
-217 -216 0
217 -50 216 0
-218 -5 0
-218 217 0
218 5 -217 0
-219 33 0
-219 -215 0
219 -33 215 0
-220 52 0
-220 -219 0
220 -52 219 0
-221 -37 0
-221 220 0
221 37 -220 0
-222 29 0
-222 -215 0
222 -29 215 0
-223 51 0
-223 -222 0
223 -51 222 0
-224 -32 0
-224 223 0
224 32 -223 0
-225 -49 0
-225 -215 0
225 49 215 0
-226 -28 0
-226 48 0
226 28 -48 0
-227 -225 0
-227 226 0
227 225 -226 0
-228 -47 0
-228 -215 0
228 47 215 0
-229 -24 0
-229 46 0
229 24 -46 0
-230 -228 0
-230 229 0
230 228 -229 0
-231 -45 0
-231 -215 0
231 45 215 0
-232 -19 0
-232 44 0
232 19 -44 0
-233 -231 0
-233 232 0
233 231 -232 0
-234 -43 0
-234 -215 0
234 43 215 0
-235 -15 0
-235 42 0
235 15 -42 0
-236 -234 0
-236 235 0
236 234 -235 0
-237 -39 0
-237 -215 0
237 39 215 0
-238 -34 0
-238 38 0
238 34 -38 0
-239 -237 0
-239 238 0
239 237 -238 0
-240 -41 0
-240 -215 0
240 41 215 0
-241 -11 0
-241 40 0
241 11 -40 0
-242 -240 0
-242 241 0
242 240 -241 0
-243 -239 0
-243 -242 0
243 239 242 0
-244 -236 0
-244 243 0
244 236 -243 0
-245 -233 0
-245 244 0
245 233 -244 0
-246 -230 0
-246 245 0
246 230 -245 0
-247 -227 0
-247 246 0
247 227 -246 0
-248 -224 0
-248 247 0
248 224 -247 0
-249 -221 0
-249 248 0
249 221 -248 0
-250 -218 0
-250 249 0
250 218 -249 0
-251 -250 0
-251 -250 0
251 250 250 0
-252 210 0
-252 210 0
252 -210 -210 0
-253 2 0
-253 -252 0
253 -2 252 0
-254 137 0
-254 -253 0
254 -137 253 0
-255 -5 0
-255 254 0
255 5 -254 0
-256 33 0
-256 -252 0
256 -33 252 0
-257 139 0
-257 -256 0
257 -139 256 0
-258 -37 0
-258 257 0
258 37 -257 0
-259 29 0
-259 -252 0
259 -29 252 0
-260 138 0
-260 -259 0
260 -138 259 0
-261 -32 0
-261 260 0
261 32 -260 0
-262 -136 0
-262 -252 0
262 136 252 0
-263 -28 0
-263 135 0
263 28 -135 0
-264 -262 0
-264 263 0
264 262 -263 0
-265 -134 0
-265 -252 0
265 134 252 0
-266 -24 0
-266 133 0
266 24 -133 0
-267 -265 0
-267 266 0
267 265 -266 0
-268 -132 0
-268 -252 0
268 132 252 0
-269 -19 0
-269 131 0
269 19 -131 0
-270 -268 0
-270 269 0
270 268 -269 0
-271 -130 0
-271 -252 0
271 130 252 0
-272 -15 0
-272 129 0
272 15 -129 0
-273 -271 0
-273 272 0
273 271 -272 0
-274 -126 0
-274 -252 0
274 126 252 0
-275 -34 0
-275 125 0
275 34 -125 0
-276 -274 0
-276 275 0
276 274 -275 0
-277 1 0
-277 -128 0
277 -1 128 0
-278 -210 0
-278 277 0
278 210 -277 0
-279 -11 0
-279 127 0
279 11 -127 0
-280 -278 0
-280 279 0
280 278 -279 0
-281 -276 0
-281 -280 0
281 276 280 0
-282 -273 0
-282 281 0
282 273 -281 0
-283 -270 0
-283 282 0
283 270 -282 0
-284 -267 0
-284 283 0
284 267 -283 0
-285 -264 0
-285 284 0
285 264 -284 0
-286 -261 0
-286 285 0
286 261 -285 0
-287 -258 0
-287 286 0
287 258 -286 0
-288 -255 0
-288 287 0
288 255 -287 0
-289 -288 0
-289 -288 0
289 288 288 0
-290 251 0
-290 -289 0
-291 -251 0
-291 289 0
292 290 291 0
293 -214 -292 0
-294 -250 0
-294 -250 0
294 250 250 0
-295 -218 0
-295 -294 0
295 218 294 0
-296 -6 0
-296 217 0
296 6 -217 0
-297 -295 0
-297 296 0
297 295 -296 0
-298 -242 0
-298 -294 0
298 242 294 0
-299 -13 0
-299 40 0
299 13 -40 0
-300 -240 0
-300 299 0
300 240 -299 0
-301 -298 0
-301 300 0
301 298 -300 0
-302 -236 0
-302 -294 0
302 236 294 0
-303 -17 0
-303 42 0
303 17 -42 0
-304 -234 0
-304 303 0
304 234 -303 0
-305 -302 0
-305 304 0
305 302 -304 0
-306 -233 0
-306 -294 0
306 233 294 0
-307 -22 0
-307 44 0
307 22 -44 0
-308 -231 0
-308 307 0
308 231 -307 0
-309 -306 0
-309 308 0
309 306 -308 0
-310 -230 0
-310 -294 0
310 230 294 0
-311 -26 0
-311 46 0
311 26 -46 0
-312 -228 0
-312 311 0
312 228 -311 0
-313 -310 0
-313 312 0
313 310 -312 0
-314 -227 0
-314 -294 0
314 227 294 0
-315 -30 0
-315 48 0
315 30 -48 0
-316 -225 0
-316 315 0
316 225 -315 0
-317 -314 0
-317 316 0
317 314 -316 0
-318 -224 0
-318 -294 0
318 224 294 0
-319 -35 0
-319 223 0
319 35 -223 0
-320 -318 0
-320 319 0
320 318 -319 0
-321 -221 0
-321 -294 0
321 221 294 0
-322 -3 0
-322 220 0
322 3 -220 0
-323 -321 0
-323 322 0
323 321 -322 0
-324 -239 0
-324 -294 0
324 239 294 0
-325 -323 0
-325 324 0
325 323 -324 0
-326 -320 0
-326 325 0
326 320 -325 0
-327 -317 0
-327 326 0
327 317 -326 0
-328 -313 0
-328 327 0
328 313 -327 0
-329 -309 0
-329 328 0
329 309 -328 0
-330 -305 0
-330 329 0
330 305 -329 0
-331 -301 0
-331 330 0
331 301 -330 0
-332 -297 0
-332 331 0
332 297 -331 0
-333 -320 0
-333 -323 0
333 320 323 0
-334 -317 0
-334 333 0
334 317 -333 0
-335 -313 0
-335 334 0
335 313 -334 0
-336 -309 0
-336 335 0
336 309 -335 0
-337 -305 0
-337 336 0
337 305 -336 0
-338 -301 0
-338 337 0
338 301 -337 0
-339 -297 0
-339 338 0
339 297 -338 0
-340 237 0
-340 339 0
340 -237 -339 0
-341 -38 0
-341 -323 0
341 38 323 0
-342 -320 0
-342 341 0
342 320 -341 0
-343 -317 0
-343 342 0
343 317 -342 0
-344 -313 0
-344 343 0
344 313 -343 0
-345 -309 0
-345 344 0
345 309 -344 0
-346 -305 0
-346 345 0
346 305 -345 0
-347 -301 0
-347 346 0
347 301 -346 0
-348 -297 0
-348 347 0
348 297 -347 0
-349 8 0
-349 -323 0
349 -8 323 0
-350 -320 0
-350 349 0
350 320 -349 0
-351 -317 0
-351 350 0
351 317 -350 0
-352 -313 0
-352 351 0
352 313 -351 0
-353 -309 0
-353 352 0
353 309 -352 0
-354 -305 0
-354 353 0
354 305 -353 0
-355 -301 0
-355 354 0
355 301 -354 0
-356 -297 0
-356 355 0
356 297 -355 0
-357 -348 0
-357 -356 0
357 348 356 0
-358 -340 0
-358 357 0
358 340 -357 0
-359 -332 0
-359 358 0
359 332 -358 0
-360 359 0
-360 359 0
360 -359 -359 0
-361 -288 0
-361 -288 0
361 288 288 0
-362 -255 0
-362 -361 0
362 255 361 0
-363 -6 0
-363 254 0
363 6 -254 0
-364 -362 0
-364 363 0
364 362 -363 0
-365 -280 0
-365 -361 0
365 280 361 0
-366 -13 0
-366 127 0
366 13 -127 0
-367 -278 0
-367 366 0
367 278 -366 0
-368 -365 0
-368 367 0
368 365 -367 0
-369 -273 0
-369 -361 0
369 273 361 0
-370 -17 0
-370 129 0
370 17 -129 0
-371 -271 0
-371 370 0
371 271 -370 0
-372 -369 0
-372 371 0
372 369 -371 0
-373 -270 0
-373 -361 0
373 270 361 0
-374 -22 0
-374 131 0
374 22 -131 0
-375 -268 0
-375 374 0
375 268 -374 0
-376 -373 0
-376 375 0
376 373 -375 0
-377 -267 0
-377 -361 0
377 267 361 0
-378 -26 0
-378 133 0
378 26 -133 0
-379 -265 0
-379 378 0
379 265 -378 0
-380 -377 0
-380 379 0
380 377 -379 0
-381 -264 0
-381 -361 0
381 264 361 0
-382 -30 0
-382 135 0
382 30 -135 0
-383 -262 0
-383 382 0
383 262 -382 0
-384 -381 0
-384 383 0
384 381 -383 0
-385 -261 0
-385 -361 0
385 261 361 0
-386 -35 0
-386 260 0
386 35 -260 0
-387 -385 0
-387 386 0
387 385 -386 0
-388 -258 0
-388 -361 0
388 258 361 0
-389 -3 0
-389 257 0
389 3 -257 0
-390 -388 0
-390 389 0
390 388 -389 0
-391 -276 0
-391 -361 0
391 276 361 0
-392 -390 0
-392 391 0
392 390 -391 0
-393 -387 0
-393 392 0
393 387 -392 0
-394 -384 0
-394 393 0
394 384 -393 0
-395 -380 0
-395 394 0
395 380 -394 0
-396 -376 0
-396 395 0
396 376 -395 0
-397 -372 0
-397 396 0
397 372 -396 0
-398 -368 0
-398 397 0
398 368 -397 0
-399 -364 0
-399 398 0
399 364 -398 0
-400 -387 0
-400 -390 0
400 387 390 0
-401 -384 0
-401 400 0
401 384 -400 0
-402 -380 0
-402 401 0
402 380 -401 0
-403 -376 0
-403 402 0
403 376 -402 0
-404 -372 0
-404 403 0
404 372 -403 0
-405 -368 0
-405 404 0
405 368 -404 0
-406 -364 0
-406 405 0
406 364 -405 0
-407 274 0
-407 406 0
407 -274 -406 0
-408 -125 0
-408 -390 0
408 125 390 0
-409 -387 0
-409 408 0
409 387 -408 0
-410 -384 0
-410 409 0
410 384 -409 0
-411 -380 0
-411 410 0
411 380 -410 0
-412 -376 0
-412 411 0
412 376 -411 0
-413 -372 0
-413 412 0
413 372 -412 0
-414 -368 0
-414 413 0
414 368 -413 0
-415 -364 0
-415 414 0
415 364 -414 0
-416 8 0
-416 -390 0
416 -8 390 0
-417 -387 0
-417 416 0
417 387 -416 0
-418 -384 0
-418 417 0
418 384 -417 0
-419 -380 0
-419 418 0
419 380 -418 0
-420 -376 0
-420 419 0
420 376 -419 0
-421 -372 0
-421 420 0
421 372 -420 0
-422 -368 0
-422 421 0
422 368 -421 0
-423 -364 0
-423 422 0
423 364 -422 0
-424 -415 0
-424 -423 0
424 415 423 0
-425 -407 0
-425 424 0
425 407 -424 0
-426 -399 0
-426 425 0
426 399 -425 0
-427 426 0
-427 426 0
427 -426 -426 0
-428 360 0
-428 -427 0
-429 -360 0
-429 427 0
430 428 429 0
431 -293 -430 0
-432 220 0
-432 220 0
432 -220 -220 0
-433 359 0
-433 359 0
433 -359 -359 0
-434 17 0
-434 -433 0
434 -17 433 0
-435 15 0
-435 -294 0
435 -15 294 0
-436 12 0
-436 -215 0
436 -12 215 0
-437 42 0
-437 -436 0
437 -42 436 0
-438 -435 0
-438 437 0
438 435 -437 0
-439 -434 0
-439 438 0
439 434 -438 0
-440 35 0
-440 -433 0
440 -35 433 0
-441 32 0
-441 -294 0
441 -32 294 0
-442 223 0
-442 -441 0
442 -223 441 0
-443 -440 0
-443 442 0
443 440 -442 0
-444 250 0
-444 -359 0
444 -250 359 0
-445 -443 0
-445 444 0
445 443 -444 0
-446 -439 0
-446 445 0
446 439 -445 0
-447 -432 0
-447 446 0
447 432 -446 0
-448 -37 0
-448 -37 0
448 37 37 0
-449 -359 0
-449 -448 0
449 359 448 0
-450 -443 0
-450 449 0
450 443 -449 0
-451 -439 0
-451 450 0
451 439 -450 0
-452 -432 0
-452 451 0
452 432 -451 0
-453 -3 0
-453 -3 0
453 3 3 0
-454 250 0
-454 -453 0
454 -250 453 0
-455 -443 0
-455 454 0
455 443 -454 0
-456 -439 0
-456 455 0
456 439 -455 0
-457 -432 0
-457 456 0
457 432 -456 0
-458 -448 0
-458 -453 0
458 448 453 0
-459 -443 0
-459 458 0
459 443 -458 0
-460 -439 0
-460 459 0
460 439 -459 0
-461 -432 0
-461 460 0
461 432 -460 0
-462 13 0
-462 -433 0
462 -13 433 0
-463 11 0
-463 -294 0
463 -11 294 0
-464 7 0
-464 -215 0
464 -7 215 0
-465 40 0
-465 -464 0
465 -40 464 0
-466 -463 0
-466 465 0
466 463 -465 0
-467 -462 0
-467 466 0
467 462 -466 0
-468 26 0
-468 -433 0
468 -26 433 0
-469 24 0
-469 -294 0
469 -24 294 0
-470 21 0
-470 -215 0
470 -21 215 0
-471 46 0
-471 -470 0
471 -46 470 0
-472 -469 0
-472 471 0
472 469 -471 0
-473 -468 0
-473 472 0
473 468 -472 0
-474 22 0
-474 -433 0
474 -22 433 0
-475 19 0
-475 -294 0
475 -19 294 0
-476 16 0
-476 -215 0
476 -16 215 0
-477 44 0
-477 -476 0
477 -44 476 0
-478 -475 0
-478 477 0
478 475 -477 0
-479 -474 0
-479 478 0
479 474 -478 0
-480 -473 0
-480 -479 0
480 473 479 0
-481 -439 0
-481 480 0
481 439 -480 0
-482 -467 0
-482 481 0
482 467 -481 0
-483 -482 0
-483 -482 0
483 482 482 0
-484 483 0
-484 483 0
484 -483 -483 0
-485 27 0
-485 -484 0
485 -27 484 0
-486 -123 0
-486 485 0
486 123 -485 0
-487 250 0
-487 486 0
487 -250 -486 0
-488 -359 0
-488 487 0
488 359 -487 0
-489 -28 0
-489 -28 0
489 28 28 0
-490 27 0
-490 -489 0
490 -27 489 0
-491 -484 0
-491 490 0
491 484 -490 0
-492 -123 0
-492 491 0
492 123 -491 0
-493 -359 0
-493 492 0
493 359 -492 0
-494 -30 0
-494 -30 0
494 30 30 0
-495 27 0
-495 -494 0
495 -27 494 0
-496 -484 0
-496 495 0
496 484 -495 0
-497 -123 0
-497 496 0
497 123 -496 0
-498 250 0
-498 497 0
498 -250 -497 0
-499 27 0
-499 -489 0
499 -27 489 0
-500 -494 0
-500 499 0
500 494 -499 0
-501 -484 0
-501 500 0
501 484 -500 0
-502 -123 0
-502 501 0
502 123 -501 0
-503 49 0
-503 49 0
503 -49 -49 0
-504 -484 0
-504 -503 0
504 484 503 0
-505 250 0
-505 504 0
505 -250 -504 0
-506 -359 0
-506 505 0
506 359 -505 0
-507 -484 0
-507 -489 0
507 484 489 0
-508 -503 0
-508 507 0
508 503 -507 0
-509 -359 0
-509 508 0
509 359 -508 0
-510 -484 0
-510 -494 0
510 484 494 0
-511 -503 0
-511 510 0
511 503 -510 0
-512 250 0
-512 511 0
512 -250 -511 0
-513 467 0
-513 467 0
513 -467 -467 0
-514 -28 0
-514 -30 0
514 28 30 0
-515 483 0
-515 514 0
515 -483 -514 0
-516 49 0
-516 515 0
516 -49 -515 0
-517 516 0
-517 516 0
517 -516 -516 0
-518 513 0
-518 517 0
518 -513 -517 0
-519 -512 0
-519 518 0
519 512 -518 0
-520 -509 0
-520 519 0
520 509 -519 0
-521 -506 0
-521 520 0
521 506 -520 0
-522 -502 0
-522 521 0
522 502 -521 0
-523 -498 0
-523 522 0
523 498 -522 0
-524 -493 0
-524 523 0
524 493 -523 0
-525 -488 0
-525 524 0
525 488 -524 0
-526 479 0
-526 479 0
526 -479 -479 0
-527 -439 0
-527 -526 0
527 439 526 0
-528 525 0
-528 -527 0
528 -525 527 0
-529 -461 0
-529 528 0
529 461 -528 0
-530 -457 0
-530 529 0
530 457 -529 0
-531 -452 0
-531 530 0
531 452 -530 0
-532 -447 0
-532 531 0
532 447 -531 0
-533 532 0
-533 532 0
533 -532 -532 0
-534 443 0
-534 483 0
534 -443 -483 0
-535 534 0
-535 534 0
535 -534 -534 0
-536 439 0
-536 439 0
536 -439 -439 0
-537 525 0
-537 536 0
537 -525 -536 0
-538 535 0
-538 537 0
538 -535 -537 0
-539 538 0
-539 538 0
539 -538 -538 0
-540 -484 0
-540 -539 0
540 484 539 0
-541 -533 0
-541 540 0
541 533 -540 0
-542 -217 0
-542 541 0
542 217 -541 0
-543 -20 0
-543 -542 0
543 20 542 0
-544 543 0
-544 543 0
544 -543 -543 0
-545 8 0
-545 -433 0
545 -8 433 0
-546 10 0
-546 -215 0
546 -10 215 0
-547 34 0
-547 -294 0
547 -34 294 0
-548 -546 0
-548 -547 0
548 546 547 0
-549 -545 0
-549 548 0
549 545 -548 0
-550 544 0
-550 549 0
550 -544 -549 0
-551 257 0
-551 257 0
551 -257 -257 0
-552 426 0
-552 426 0
552 -426 -426 0
-553 17 0
-553 -552 0
553 -17 552 0
-554 15 0
-554 -361 0
554 -15 361 0
-555 12 0
-555 -252 0
555 -12 252 0
-556 129 0
-556 -555 0
556 -129 555 0
-557 -554 0
-557 556 0
557 554 -556 0
-558 -553 0
-558 557 0
558 553 -557 0
-559 35 0
-559 -552 0
559 -35 552 0
-560 32 0
-560 -361 0
560 -32 361 0
-561 260 0
-561 -560 0
561 -260 560 0
-562 -559 0
-562 561 0
562 559 -561 0
-563 288 0
-563 -426 0
563 -288 426 0
-564 -562 0
-564 563 0
564 562 -563 0
-565 -558 0
-565 564 0
565 558 -564 0
-566 -551 0
-566 565 0
566 551 -565 0
-567 -37 0
-567 -37 0
567 37 37 0
-568 -426 0
-568 -567 0
568 426 567 0
-569 -562 0
-569 568 0
569 562 -568 0
-570 -558 0
-570 569 0
570 558 -569 0
-571 -551 0
-571 570 0
571 551 -570 0
-572 -3 0
-572 -3 0
572 3 3 0
-573 288 0
-573 -572 0
573 -288 572 0
-574 -562 0
-574 573 0
574 562 -573 0
-575 -558 0
-575 574 0
575 558 -574 0
-576 -551 0
-576 575 0
576 551 -575 0
-577 -567 0
-577 -572 0
577 567 572 0
-578 -562 0
-578 577 0
578 562 -577 0
-579 -558 0
-579 578 0
579 558 -578 0
-580 -551 0
-580 579 0
580 551 -579 0
-581 13 0
-581 -552 0
581 -13 552 0
-582 11 0
-582 -361 0
582 -11 361 0
-583 7 0
-583 -252 0
583 -7 252 0
-584 127 0
-584 -583 0
584 -127 583 0
-585 -582 0
-585 584 0
585 582 -584 0
-586 -581 0
-586 585 0
586 581 -585 0
-587 26 0
-587 -552 0
587 -26 552 0
-588 24 0
-588 -361 0
588 -24 361 0
-589 21 0
-589 -252 0
589 -21 252 0
-590 133 0
-590 -589 0
590 -133 589 0
-591 -588 0
-591 590 0
591 588 -590 0
-592 -587 0
-592 591 0
592 587 -591 0
-593 22 0
-593 -552 0
593 -22 552 0
-594 19 0
-594 -361 0
594 -19 361 0
-595 16 0
-595 -252 0
595 -16 252 0
-596 131 0
-596 -595 0
596 -131 595 0
-597 -594 0
-597 596 0
597 594 -596 0
-598 -593 0
-598 597 0
598 593 -597 0
-599 -592 0
-599 -598 0
599 592 598 0
-600 -558 0
-600 599 0
600 558 -599 0
-601 -586 0
-601 600 0
601 586 -600 0
-602 -601 0
-602 -601 0
602 601 601 0
-603 602 0
-603 602 0
603 -602 -602 0
-604 27 0
-604 -603 0
604 -27 603 0
-605 -210 0
-605 604 0
605 210 -604 0
-606 288 0
-606 605 0
606 -288 -605 0
-607 -426 0
-607 606 0
607 426 -606 0
-608 -28 0
-608 -28 0
608 28 28 0
-609 27 0
-609 -608 0
609 -27 608 0
-610 -603 0
-610 609 0
610 603 -609 0
-611 -210 0
-611 610 0
611 210 -610 0
-612 -426 0
-612 611 0
612 426 -611 0
-613 -30 0
-613 -30 0
613 30 30 0
-614 27 0
-614 -613 0
614 -27 613 0
-615 -603 0
-615 614 0
615 603 -614 0
-616 -210 0
-616 615 0
616 210 -615 0
-617 288 0
-617 616 0
617 -288 -616 0
-618 27 0
-618 -608 0
618 -27 608 0
-619 -613 0
-619 618 0
619 613 -618 0
-620 -603 0
-620 619 0
620 603 -619 0
-621 -210 0
-621 620 0
621 210 -620 0
-622 136 0
-622 136 0
622 -136 -136 0
-623 -603 0
-623 -622 0
623 603 622 0
-624 288 0
-624 623 0
624 -288 -623 0
-625 -426 0
-625 624 0
625 426 -624 0
-626 -603 0
-626 -608 0
626 603 608 0
-627 -622 0
-627 626 0
627 622 -626 0
-628 -426 0
-628 627 0
628 426 -627 0
-629 -603 0
-629 -613 0
629 603 613 0
-630 -622 0
-630 629 0
630 622 -629 0
-631 288 0
-631 630 0
631 -288 -630 0
-632 586 0
-632 586 0
632 -586 -586 0
-633 -28 0
-633 -30 0
633 28 30 0
-634 602 0
-634 633 0
634 -602 -633 0
-635 136 0
-635 634 0
635 -136 -634 0
-636 635 0
-636 635 0
636 -635 -635 0
-637 632 0
-637 636 0
637 -632 -636 0
-638 -631 0
-638 637 0
638 631 -637 0
-639 -628 0
-639 638 0
639 628 -638 0
-640 -625 0
-640 639 0
640 625 -639 0
-641 -621 0
-641 640 0
641 621 -640 0
-642 -617 0
-642 641 0
642 617 -641 0
-643 -612 0
-643 642 0
643 612 -642 0
-644 -607 0
-644 643 0
644 607 -643 0
-645 598 0
-645 598 0
645 -598 -598 0
-646 -558 0
-646 -645 0
646 558 645 0
-647 644 0
-647 -646 0
647 -644 646 0
-648 -580 0
-648 647 0
648 580 -647 0
-649 -576 0
-649 648 0
649 576 -648 0
-650 -571 0
-650 649 0
650 571 -649 0
-651 -566 0
-651 650 0
651 566 -650 0
-652 651 0
-652 651 0
652 -651 -651 0
-653 562 0
-653 602 0
653 -562 -602 0
-654 653 0
-654 653 0
654 -653 -653 0
-655 558 0
-655 558 0
655 -558 -558 0
-656 644 0
-656 655 0
656 -644 -655 0
-657 654 0
-657 656 0
657 -654 -656 0
-658 657 0
-658 657 0
658 -657 -657 0
-659 -603 0
-659 -658 0
659 603 658 0
-660 -652 0
-660 659 0
660 652 -659 0
-661 -254 0
-661 660 0
661 254 -660 0
-662 -20 0
-662 -661 0
662 20 661 0
-663 662 0
-663 662 0
663 -662 -662 0
-664 8 0
-664 -552 0
664 -8 552 0
-665 10 0
-665 -252 0
665 -10 252 0
-666 34 0
-666 -361 0
666 -34 361 0
-667 -665 0
-667 -666 0
667 665 666 0
-668 -664 0
-668 667 0
668 664 -667 0
-669 663 0
-669 668 0
669 -663 -668 0
-670 550 0
-670 -669 0
-671 -550 0
-671 669 0
672 670 671 0
673 -431 -672 0
-674 483 0
-674 -602 0
-675 -483 0
-675 602 0
676 674 675 0
677 -673 -676 0
-678 538 0
-678 -657 0
-679 -538 0
-679 657 0
680 678 679 0
681 -677 -680 0
-682 532 0
-682 -651 0
-683 -532 0
-683 651 0
684 682 683 0
685 -681 -684 0
-685 0
